InboundTrucks  = 60;
OutboundTrucks = 30;
InboundDoors   = 12;
OutboundDoors  = 6;
ReleaseTime    = [29,45,27,16,6,25,12,13,55,39,12,45,31,47,12,55,1,6,8,15,54,33,2,27,57,41,11,53,20,40,30,49,42,15,33,55,55,31,20,15,28,17,30,12,2,33,59,2,48,28,21,40,6,28,54,13,24,57,48,20];
UnloadTime     = [2,5,12,4,11,10,3,6,2,10,5,4,11,12,3,8,4,9,9,7,3,2,6,4,3,4,1,3,11,9,6,8,4,2,6,4,10,3,6,9,12,3,1,4,10,11,9,6,6,10,10,3,3,10,11,6,2,4,9,12];
LoadTime       = [1,6,12,10,2,11,2,7,11,2,4,7,9,3,7,8,11,4,9,11,10,6,4,10,12,12,6,11,1,11];
TransferTime   = [| 1,2,2,0,0,2,0,0,1,1,0,0,0,0,0,0,1,1,0,1,0,0,0,2,2,0,0,0,0,1 | 2,0,2,0,2,1,1,0,0,0,0,0,0,0,2,1,2,0,0,1,0,0,0,0,0,0,1,0,2,2 | 0,1,1,0,1,1,2,0,1,2,0,0,0,0,0,0,2,2,1,1,2,0,2,1,0,2,1,2,0,2 | 0,0,0,0,2,0,0,0,0,0,0,2,0,0,1,2,0,2,2,0,0,0,1,0,0,2,2,2,0,2 | 0,1,0,0,0,0,2,1,0,0,0,2,0,0,0,0,2,1,0,0,0,0,0,0,1,2,0,0,0,0 | 0,2,2,0,0,0,0,0,0,0,0,2,0,0,0,0,2,1,0,2,0,0,1,1,2,0,0,0,2,2 | 1,0,0,2,0,0,1,2,0,2,0,0,2,0,0,0,0,0,1,0,0,0,0,0,2,0,1,0,1,0 | 2,0,2,0,0,0,0,1,1,0,0,1,0,2,1,1,0,2,0,0,0,0,2,1,0,0,0,2,1,2 | 0,0,0,0,1,0,0,0,2,1,1,0,0,0,1,0,0,1,0,0,1,0,2,2,0,0,0,0,0,0 | 0,0,0,0,0,0,0,0,2,0,0,0,2,0,0,0,0,0,0,2,0,2,0,0,0,0,1,1,0,0 | 0,0,0,2,0,0,0,0,0,1,0,2,0,1,0,0,0,0,2,0,1,0,0,0,0,0,0,2,0,2 | 0,0,0,1,0,0,0,0,2,0,0,1,1,0,2,1,1,0,0,1,0,0,0,0,0,0,1,0,0,2 | 3,0,0,3,0,3,0,0,0,0,0,0,4,0,0,0,3,0,0,0,0,3,0,0,0,0,0,0,0,0 | 0,0,0,0,0,0,0,4,0,0,0,2,0,0,2,0,0,0,2,1,0,4,0,0,0,0,0,0,0,0 | 5,1,1,0,0,0,2,0,3,4,0,0,0,0,4,0,0,2,4,0,0,4,1,1,0,0,0,0,0,0 | 0,0,0,0,0,2,3,0,0,0,0,3,3,0,0,0,0,0,0,1,3,0,0,0,0,0,0,0,0,0 | 0,4,0,5,0,0,2,0,0,0,3,0,0,5,0,0,0,0,4,0,0,0,1,0,4,0,2,0,4,0 | 0,0,3,1,0,4,1,1,0,0,1,4,0,0,0,0,3,1,0,0,1,0,0,0,0,0,3,0,4,5 | 0,0,0,0,0,0,0,0,0,5,0,2,0,0,5,1,2,1,0,0,0,0,0,0,0,0,0,0,0,4 | 0,0,0,0,1,0,0,2,0,0,0,0,4,0,0,0,0,0,0,0,0,3,0,0,0,0,0,0,0,0 | 5,0,0,0,0,3,0,0,4,0,4,0,1,0,0,0,0,2,0,0,0,0,0,4,4,0,0,0,2,0 | 4,0,0,0,0,0,0,2,4,0,3,0,0,3,0,0,2,0,0,2,3,0,0,3,0,0,3,1,0,4 | 0,3,0,0,0,0,0,0,0,0,0,3,0,0,0,0,1,5,0,0,5,0,0,0,3,0,0,1,0,0 | 2,0,0,0,0,2,3,0,0,0,3,0,2,0,0,1,0,0,0,0,2,0,0,3,0,1,3,0,4,0 | 0,0,0,0,0,0,0,0,3,0,3,0,0,0,0,0,0,0,0,0,0,2,0,0,0,0,2,0,0,5 | 0,0,0,0,0,0,5,0,0,0,0,3,0,0,0,0,0,3,3,2,0,0,0,0,4,2,0,4,0,2 | 0,0,0,0,5,1,0,0,0,0,0,0,4,3,0,0,0,3,0,0,3,0,0,0,0,0,0,0,0,0 | 0,0,0,0,0,3,2,0,0,0,0,0,2,0,1,0,0,0,4,0,0,0,0,0,1,0,0,0,0,0 | 0,0,0,0,0,2,0,3,0,0,0,5,0,0,0,4,3,0,0,4,0,0,2,0,0,0,0,0,0,0 | 0,0,0,0,0,1,0,0,0,0,0,0,0,0,0,3,3,3,3,0,0,0,0,0,0,4,4,0,0,0 | 0,3,0,0,1,2,0,2,4,0,4,0,3,0,0,0,0,0,0,0,0,0,3,0,5,0,4,0,0,0 | 0,3,0,0,0,0,0,0,1,1,0,0,0,0,0,0,0,2,0,0,0,0,4,4,0,5,0,0,0,0 | 0,0,5,0,0,0,5,3,1,0,0,0,2,0,4,1,4,0,0,0,1,3,0,0,0,5,0,0,0,0 | 0,0,0,3,0,0,4,0,0,0,4,0,0,5,0,0,1,0,0,0,0,0,0,0,0,0,5,3,0,0 | 0,2,0,0,0,4,0,0,0,0,1,0,4,2,5,0,5,0,1,0,1,0,2,0,0,0,5,0,0,0 | 0,4,0,0,0,2,5,0,0,0,2,0,0,0,0,0,5,0,0,4,0,4,5,1,0,0,1,0,5,4 | 0,0,0,0,1,0,2,0,0,0,0,0,1,0,0,0,0,2,0,3,0,3,0,0,3,0,0,0,0,2 | 0,0,0,5,0,0,0,0,0,0,3,0,2,0,0,3,4,4,0,0,0,0,0,2,5,1,4,0,3,0 | 0,0,0,0,0,0,0,0,2,0,0,1,1,0,0,0,0,0,0,0,0,0,2,0,0,0,1,0,0,1 | 0,0,0,0,5,0,0,0,0,2,0,0,0,0,0,0,1,0,0,0,0,3,0,0,0,0,0,0,4,0 | 0,0,0,0,0,0,0,0,0,2,2,0,0,0,0,0,0,0,5,1,0,0,0,0,1,0,0,0,3,0 | 0,0,5,0,5,0,0,4,0,0,0,0,0,5,0,1,0,5,0,0,2,0,0,0,0,5,0,0,0,0 | 0,0,0,0,0,2,0,0,0,0,5,0,0,0,0,0,0,0,0,0,0,0,4,0,4,0,0,0,0,3 | 0,0,0,0,0,5,0,0,0,2,4,4,0,0,0,0,0,0,2,0,0,0,0,0,0,0,0,0,0,0 | 0,0,0,0,3,0,0,0,0,0,2,3,0,0,0,0,0,0,0,0,0,5,0,0,0,0,0,4,4,0 | 1,3,4,0,0,5,3,0,0,0,0,5,0,0,1,0,0,0,0,0,0,0,0,4,0,0,2,2,0,0 | 0,0,0,0,0,2,0,0,0,5,3,0,3,0,0,0,0,0,0,0,0,4,0,1,0,0,5,1,0,0 | 0,4,0,0,0,0,2,2,0,0,0,0,0,0,0,0,3,2,5,0,0,0,0,1,0,3,2,0,1,4 | 4,4,5,0,5,0,0,0,2,0,0,5,0,2,0,0,0,0,0,0,0,0,0,0,0,0,0,0,4,0 | 2,0,0,0,0,0,0,0,0,0,2,0,0,0,4,0,0,5,0,0,0,0,0,4,0,2,0,0,2,0 | 0,2,0,0,4,0,0,0,0,0,2,0,1,3,0,0,1,0,0,0,4,0,4,3,3,0,0,0,3,0 | 1,5,0,0,2,2,0,0,0,0,0,0,2,0,3,0,5,0,0,0,0,0,0,5,0,0,0,0,0,0 | 0,0,0,0,0,0,1,4,0,0,0,0,0,5,1,0,0,5,5,2,0,0,0,2,0,0,0,4,0,0 | 0,0,0,0,0,5,0,3,0,0,0,2,0,0,1,0,2,0,0,0,5,4,0,0,0,2,2,0,0,0 | 0,5,0,0,0,0,0,0,0,4,0,0,0,0,4,0,3,0,0,0,2,0,0,0,2,0,0,0,0,0 | 3,0,0,1,0,0,0,0,0,0,4,0,0,0,0,0,0,0,1,3,0,0,3,1,3,0,0,0,5,1 | 0,0,5,0,4,0,0,5,0,0,0,0,0,0,0,5,0,0,3,0,0,0,0,0,5,0,0,0,3,0 | 0,0,5,3,0,0,0,0,0,0,0,0,4,5,0,0,2,0,0,0,2,3,0,4,0,0,0,0,0,0 | 0,5,0,0,3,0,0,0,0,5,5,0,0,0,0,2,0,0,0,1,3,0,0,0,3,0,0,0,0,0 | 2,0,0,0,0,0,0,0,0,0,0,3,0,0,0,0,0,0,0,1,0,0,0,0,0,0,4,0,0,5 |];
